nServices=10;
nDrivers=15;
nBuses=15;
maxBuses=12;
startingTime=[102 119 164 52 79 113 65 4 108 195];
durationTime=[12 11 20 16 22 18 18 18 12 28];
durationDist=[56 22 58 20 50 22 24 49 49 38];
passangers=[2 13 23 18 5 12 21 23 18 11];
capacity=[25 23 17 11 12 18 26 30 20 12 30 29 11 22 22];
costTime=[6 9 8 7 10 9 8 6 6 8 8 9 7 10 7];
costDist=[2 2 6 5 4 6 3 4 2 3 4 3 2 4 3];
maxTime=[32 38 43 35 50 45 26 45 39 60 44 42 20 38 29];
costBM=[8 8 7 5 5 5 7 5 6 8 5 8 7 5 6];
costEM=[11 9 10 11 9 11 9 8 12 12 8 10 10 8 11];
BM=[11 10 11 16 13 20 19 16 18 16 15 11 18 14 13];
